certificates/rado_a31_c30_N64.drat
-63 -64 0
d -63 -1 -64 0
31 32 63 0
-2 63 0
-64 0
63 0
2 0
-1 0
-34 0
-31 0
3 0
35 0
33 0
32 0
30 0
0
